NAME :
TYPE : CCVRP
COMMENT :
DIMENSION : 301
CAPACITY : 200
EDGE_WEIGHT_TYPE : EUC_2D_DBL
NODE_COORD_TYPE: TWOD_COORD
NODE_COORD_SECTION
1 0.0000 0.0000
2 5.7735 0.0000
3 2.8867 5.0000
4 -2.8868 5.0000
5 -5.7735 0.0000
6 -2.8867 -5.0000
7 2.8868 -5.0000
8 8.6603 5.0000
9 0.0000 10.0000
10 -8.6603 5.0000
11 -8.6603 -5.0000
12 0.0000 -10.0000
13 8.6603 -5.0000
14 5.3405 0.7500
15 3.3198 4.2500
16 6.4952 -1.2500
17 7.2169 -2.5000
18 7.9386 -3.7500
19 6.4952 1.2500
20 7.2169 2.5000
21 7.9386 3.7500
22 2.0207 5.0000
23 -2.0207 5.0000
24 4.3301 5.0000
25 5.7735 5.0000
26 7.2169 5.0000
27 2.1651 6.2500
28 1.4434 7.5000
29 0.7217 8.7500
30 -3.3198 4.2500
31 -5.3405 0.7500
32 -2.1651 6.2500
33 -1.4434 7.5000
34 -0.7217 8.7500
35 -4.3301 5.0000
36 -5.7735 5.0000
37 -7.2169 5.0000
38 -5.3405 -0.7500
39 -3.3198 -4.2500
40 -6.4952 1.2500
41 -7.2169 2.5000
42 -7.9386 3.7500
43 -6.4952 -1.2500
44 -7.2169 -2.5000
45 -7.9386 -3.7500
46 -2.0207 -5.0000
47 2.0207 -5.0000
48 -4.3301 -5.0000
49 -5.7735 -5.0000
50 -7.2169 -5.0000
51 -2.1651 -6.2500
52 -1.4434 -7.5000
53 -0.7217 -8.7500
54 3.3198 -4.2500
55 5.3405 -0.7500
56 2.1651 -6.2500
57 1.4434 -7.5000
58 0.7217 -8.7500
59 4.3301 -5.0000
60 5.7735 -5.0000
61 7.2169 -5.0000
62 7.2169 0.0000
63 3.6084 6.2500
64 -3.6084 6.2500
65 -7.2169 0.0000
66 -3.6084 -6.2500
67 3.6084 -6.2500
68 10.8253 6.2500
69 0.0000 12.5000
70 -10.8253 6.2500
71 -10.8253 -6.2500
72 0.0000 -12.5000
73 10.8253 -6.2500
74 6.6756 0.9375
75 4.1497 5.3125
76 8.1190 -1.5625
77 9.0211 -3.1250
78 9.9232 -4.6875
79 8.1190 1.5625
80 9.0211 3.1250
81 9.9232 4.6875
82 2.5259 6.2500
83 -2.5259 6.2500
84 5.4127 6.2500
85 7.2169 6.2500
86 9.0211 6.2500
87 2.7063 7.8125
88 1.8042 9.3750
89 0.9021 10.9375
90 -4.1497 5.3125
91 -6.6756 0.9375
92 -2.7063 7.8125
93 -1.8042 9.3750
94 -0.9021 10.9375
95 -5.4127 6.2500
96 -7.2169 6.2500
97 -9.0211 6.2500
98 -6.6756 -0.9375
99 -4.1497 -5.3125
100 -8.1190 1.5625
101 -9.0211 3.1250
102 -9.9232 4.6875
103 -8.1190 -1.5625
104 -9.0211 -3.1250
105 -9.9232 -4.6875
106 -2.5259 -6.2500
107 2.5259 -6.2500
108 -5.4127 -6.2500
109 -7.2169 -6.2500
110 -9.0211 -6.2500
111 -2.7063 -7.8125
112 -1.8042 -9.3750
113 -0.9021 -10.9375
114 4.1497 -5.3125
115 6.6756 -0.9375
116 2.7063 -7.8125
117 1.8042 -9.3750
118 0.9021 -10.9375
119 5.4127 -6.2500
120 7.2169 -6.2500
121 9.0211 -6.2500
122 9.0211 0.0000
123 4.5105 7.8125
124 -4.5105 7.8125
125 -9.0211 0.0000
126 -4.5105 -7.8125
127 4.5106 -7.8125
128 13.5316 7.8125
129 0.0000 15.6250
130 -13.5316 7.8125
131 -13.5316 -7.8125
132 0.0000 -15.6250
133 13.5316 -7.8125
134 8.3445 1.1719
135 5.1871 6.6406
136 10.1487 -1.9531
137 11.2764 -3.9062
138 12.4040 -5.8594
139 10.1487 1.9531
140 11.2764 3.9062
141 12.4040 5.8594
142 3.1574 7.8125
143 -3.1574 7.8125
144 6.7658 7.8125
145 9.0211 7.8125
146 11.2764 7.8125
147 3.3829 9.7656
148 2.2553 11.7187
149 1.1276 13.6719
150 -5.1871 6.6406
151 -8.3445 1.1719
152 -3.3829 9.7656
153 -2.2553 11.7187
154 -1.1276 13.6719
155 -6.7658 7.8125
156 -9.0211 7.8125
157 -11.2764 7.8125
158 -8.3445 -1.1719
159 -5.1871 -6.6406
160 -10.1487 1.9531
161 -11.2764 3.9062
162 -12.4040 5.8594
163 -10.1487 -1.9531
164 -11.2764 -3.9063
165 -12.4040 -5.8594
166 -3.1574 -7.8125
167 3.1574 -7.8125
168 -6.7658 -7.8125
169 -9.0211 -7.8125
170 -11.2764 -7.8125
171 -3.3829 -9.7656
172 -2.2553 -11.7187
173 -1.1276 -13.6719
174 5.1871 -6.6406
175 8.3445 -1.1719
176 3.3829 -9.7656
177 2.2553 -11.7187
178 1.1276 -13.6719
179 6.7658 -7.8125
180 9.0211 -7.8125
181 11.2764 -7.8125
182 11.2764 0.0000
183 5.6382 9.7656
184 -5.6382 9.7656
185 -11.2764 0.0000
186 -5.6382 -9.7656
187 5.6382 -9.7656
188 16.9146 9.7656
189 0.0000 19.5312
190 -16.9146 9.7656
191 -16.9146 -9.7656
192 0.0000 -19.5312
193 16.9146 -9.7656
194 10.4306 1.4648
195 6.4839 8.3008
196 12.6859 -2.4414
197 14.0955 -4.8828
198 15.5050 -7.3242
199 12.6859 2.4414
200 14.0955 4.8828
201 15.5050 7.3242
202 3.9467 9.7656
203 -3.9467 9.7656
204 8.4573 9.7656
205 11.2764 9.7656
206 14.0955 9.7656
207 4.2286 12.2070
208 2.8191 14.6484
209 1.4095 17.0898
210 -6.4839 8.3008
211 -10.4306 1.4648
212 -4.2286 12.2070
213 -2.8191 14.6484
214 -1.4095 17.0898
215 -8.4573 9.7656
216 -11.2764 9.7656
217 -14.0955 9.7656
218 -10.4306 -1.4648
219 -6.4839 -8.3008
220 -12.6859 2.4414
221 -14.0955 4.8828
222 -15.5050 7.3242
223 -12.6859 -2.4414
224 -14.0955 -4.8828
225 -15.5050 -7.3242
226 -3.9467 -9.7656
227 3.9467 -9.7656
228 -8.4573 -9.7656
229 -11.2764 -9.7656
230 -14.0955 -9.7656
231 -4.2286 -12.2070
232 -2.8191 -14.6484
233 -1.4095 -17.0898
234 6.4839 -8.3008
235 10.4306 -1.4648
236 4.2286 -12.2070
237 2.8191 -14.6484
238 1.4095 -17.0898
239 8.4573 -9.7656
240 11.2764 -9.7656
241 14.0955 -9.7656
242 14.0955 0.0000
243 7.0477 12.2070
244 -7.0477 12.2070
245 -14.0955 0.0000
246 -7.0477 -12.2070
247 7.0477 -12.2070
248 21.1432 12.2070
249 0.0000 24.4141
250 -21.1432 12.2070
251 -21.1432 -12.2070
252 0.0000 -24.4141
253 21.1432 -12.2070
254 13.0383 1.8311
255 8.1049 10.3760
256 15.8574 -3.0518
257 17.6193 -6.1035
258 19.3813 -9.1553
259 15.8574 3.0518
260 17.6193 6.1035
261 19.3813 9.1553
262 4.9334 12.2070
263 -4.9334 12.2070
264 10.5716 12.2070
265 14.0955 12.2070
266 17.6193 12.2070
267 5.2858 15.2588
268 3.5239 18.3105
269 1.7619 21.3623
270 -8.1049 10.3760
271 -13.0383 1.8311
272 -5.2858 15.2588
273 -3.5239 18.3105
274 -1.7619 21.3623
275 -10.5716 12.2070
276 -14.0955 12.2070
277 -17.6193 12.2070
278 -13.0383 -1.8311
279 -8.1049 -10.3760
280 -15.8574 3.0518
281 -17.6193 6.1035
282 -19.3813 9.1553
283 -15.8574 -3.0518
284 -17.6193 -6.1035
285 -19.3813 -9.1553
286 -4.9334 -12.2070
287 4.9334 -12.2070
288 -10.5716 -12.2070
289 -14.0955 -12.2070
290 -17.6193 -12.2070
291 -5.2858 -15.2588
292 -3.5239 -18.3105
293 -1.7619 -21.3623
294 8.1049 -10.3760
295 13.0383 -1.8311
296 5.2858 -15.2588
297 3.5239 -18.3105
298 1.7619 -21.3623
299 10.5716 -12.2070
300 14.0955 -12.2070
301 17.6193 -12.2070
DEMAND_SECTION
1 0
2 40
3 40
4 40
5 40
6 40
7 40
8 40
9 40
10 40
11 40
12 40
13 40
14 10
15 10
16 10
17 20
18 10
19 10
20 20
21 10
22 10
23 10
24 10
25 20
26 10
27 10
28 20
29 10
30 10
31 10
32 10
33 20
34 10
35 10
36 20
37 10
38 10
39 10
40 10
41 20
42 10
43 10
44 20
45 10
46 10
47 10
48 10
49 20
50 10
51 10
52 20
53 10
54 10
55 10
56 10
57 20
58 10
59 10
60 20
61 10
62 40
63 40
64 40
65 40
66 40
67 40
68 40
69 40
70 40
71 40
72 40
73 40
74 10
75 10
76 10
77 20
78 10
79 10
80 20
81 10
82 10
83 10
84 10
85 20
86 10
87 10
88 20
89 10
90 10
91 10
92 10
93 20
94 10
95 10
96 20
97 10
98 10
99 10
100 10
101 20
102 10
103 10
104 20
105 10
106 10
107 10
108 10
109 20
110 10
111 10
112 20
113 10
114 10
115 10
116 10
117 20
118 10
119 10
120 20
121 10
122 40
123 40
124 40
125 40
126 40
127 40
128 40
129 40
130 40
131 40
132 40
133 40
134 10
135 10
136 10
137 20
138 10
139 10
140 20
141 10
142 10
143 10
144 10
145 20
146 10
147 10
148 20
149 10
150 10
151 10
152 10
153 20
154 10
155 10
156 20
157 10
158 10
159 10
160 10
161 20
162 10
163 10
164 20
165 10
166 10
167 10
168 10
169 20
170 10
171 10
172 20
173 10
174 10
175 10
176 10
177 20
178 10
179 10
180 20
181 10
182 40
183 40
184 40
185 40
186 40
187 40
188 40
189 40
190 40
191 40
192 40
193 40
194 10
195 10
196 10
197 20
198 10
199 10
200 20
201 10
202 10
203 10
204 10
205 20
206 10
207 10
208 20
209 10
210 10
211 10
212 10
213 20
214 10
215 10
216 20
217 10
218 10
219 10
220 10
221 20
222 10
223 10
224 20
225 10
226 10
227 10
228 10
229 20
230 10
231 10
232 20
233 10
234 10
235 10
236 10
237 20
238 10
239 10
240 20
241 10
242 40
243 40
244 40
245 40
246 40
247 40
248 40
249 40
250 40
251 40
252 40
253 40
254 10
255 10
256 10
257 20
258 10
259 10
260 20
261 10
262 10
263 10
264 10
265 20
266 10
267 10
268 20
269 10
270 10
271 10
272 10
273 20
274 10
275 10
276 20
277 10
278 10
279 10
280 10
281 20
282 10
283 10
284 20
285 10
286 10
287 10
288 10
289 20
290 10
291 10
292 20
293 10
294 10
295 10
296 10
297 20
298 10
299 10
300 20
301 10
CLUSTER_SECTION
1 175
2 30
3 23
4 16
5 9
6 2
7 40
8 27
9 20
10 13
11 6
12 37
13 34
14 31
15 24
16 31
17 32
18 33
19 29
20 28
21 28
22 24
23 17
24 24
25 25
26 25
27 22
28 21
29 21
30 17
31 10
32 17
33 18
34 18
35 15
36 14
37 14
38 10
39 3
40 10
41 11
42 11
43 8
44 7
45 7
46 3
47 41
48 3
49 4
50 4
51 35
52 35
53 36
54 41
55 31
56 39
57 38
58 38
59 41
60 42
61 43
62 44
63 45
64 46
65 47
66 1
67 48
68 54
69 59
70 64
71 69
72 74
73 51
74 29
75 24
76 49
77 49
78 50
79 52
80 52
81 53
82 22
83 17
84 25
85 55
86 55
87 57
88 57
89 58
90 15
91 10
92 18
93 60
94 60
95 62
96 62
97 63
98 8
99 3
100 11
101 65
102 65
103 67
104 67
105 68
106 35
107 39
108 4
109 70
110 70
111 72
112 72
113 73
114 42
115 32
116 75
117 75
118 76
119 78
120 43
121 79
122 81
123 82
124 83
125 84
126 85
127 86
128 119
129 120
130 121
131 122
132 123
133 124
134 52
135 26
136 87
137 87
138 88
139 89
140 89
141 90
142 57
143 19
144 55
145 91
146 91
147 93
148 93
149 94
150 62
151 12
152 60
153 95
154 95
155 97
156 97
157 98
158 67
159 5
160 65
161 99
162 99
163 101
164 101
165 102
166 72
167 75
168 70
169 103
170 103
171 105
172 105
173 106
174 78
175 49
176 76
177 76
178 107
179 79
180 79
181 108
182 109
183 110
184 111
185 112
186 113
187 114
188 130
189 134
190 138
191 142
192 146
193 127
194 89
195 56
196 125
197 88
198 126
199 128
200 90
201 129
202 93
203 61
204 91
205 115
206 131
207 132
208 94
209 133
210 97
211 66
212 95
213 116
214 135
215 136
216 98
217 137
218 101
219 71
220 99
221 117
222 139
223 140
224 102
225 141
226 105
227 77
228 103
229 118
230 143
231 144
232 106
233 145
234 80
235 87
236 147
237 107
238 148
239 149
240 108
241 150
242 151
243 152
244 153
245 154
246 155
247 156
248 169
249 170
250 171
251 172
252 173
253 174
254 128
255 92
256 157
257 157
258 158
259 157
260 159
261 159
262 132
263 96
264 131
265 131
266 159
267 160
268 160
269 160
270 136
271 100
272 135
273 135
274 161
275 162
276 162
277 162
278 140
279 104
280 139
281 139
282 163
283 164
284 164
285 164
286 144
287 147
288 143
289 143
290 165
291 166
292 166
293 166
294 149
295 125
296 148
297 148
298 167
299 150
300 150
301 168
DEPOT_SECTION
1
-1
EOF
